70
125
100	5
99	4
98	3
97	4
96	3
95	2
94	2
91	5
90	2
89	4
88	5
87	1
86	4
85	3
84	2
83	3
82	3
81	1
80	3
79	2
78	1
76	3
75	2
74	2
73	3
72	2
71	4
70	1
69	2
68	3
67	1
66	8
65	3
64	1
63	3
62	4
61	4
60	4
59	1
57	1
56	1
55	5
54	3
53	2
52	2
51	1
50	2
49	1
48	1
47	5
46	3
45	5
44	2
43	2
42	3
41	1
40	4
39	1
38	2
36	2
34	4
33	4
32	3
31	5
30	4
29	3
28	1
27	5
26	5
25	4
